# Solution for model GNN
# Objective value = 2.2033652134362778e+00
A[0,0] 1
A[0,1] 1
A[0,2] 1
A[0,3] 1
A[1,0] 1
A[1,1] 1
A[1,2] 1
A[1,3] 1
A[2,0] 1
A[2,1] 1
A[2,2] 1
A[2,3] 1
A[3,0] 1
A[3,1] 1
A[3,2] 1
A[3,3] 1
x[0,0] 1
x[0,1] 0
x[0,2] 0
x[0,3] 0
x[0,4] 0
x[0,5] 0
x[0,6] 0
x[0,7] 1
x[0,8] 0
x[0,9] 0
x[0,10] 1
x[0,11] 0
x[0,12] 0
x[0,13] 0
x[1,0] 1
x[1,1] 0
x[1,2] 0
x[1,3] 0
x[1,4] 0
x[1,5] 0
x[1,6] 0
x[1,7] 1
x[1,8] 0
x[1,9] 0
x[1,10] 1
x[1,11] 0
x[1,12] 0
x[1,13] 0
x[2,0] 1
x[2,1] 0
x[2,2] 0
x[2,3] 0
x[2,4] 0
x[2,5] 0
x[2,6] 0
x[2,7] 1
x[2,8] 0
x[2,9] 0
x[2,10] 1
x[2,11] 0
x[2,12] 0
x[2,13] 0
x[3,0] 1
x[3,1] 0
x[3,2] 0
x[3,3] 0
x[3,4] 0
x[3,5] 0
x[3,6] 0
x[3,7] 1
x[3,8] 0
x[3,9] 0
x[3,10] 1
x[3,11] 0
x[3,12] 0
x[3,13] 0
c[0,0,0] 0
c[0,0,1] 0
c[0,0,2] 0
c[0,0,3] 0
c[0,0,4] 0
c[0,0,5] 0
c[0,0,6] 0
c[0,0,7] 0
c[0,0,8] 0
c[0,0,9] 0
c[0,0,10] 0
c[0,0,11] 0
c[0,0,12] 0
c[0,0,13] 0
c[0,0,14] 0
c[0,0,15] 0
c[0,0,16] 0
c[0,0,17] 0
c[0,0,18] 0
c[0,0,19] 0
c[0,0,20] 0
c[0,0,21] 0
c[0,0,22] 0
c[0,0,23] 0
c[0,0,24] 1
c[0,1,0] 0
c[0,1,1] 0
c[0,1,2] 0
c[0,1,3] 0
c[0,1,4] 0
c[0,1,5] 0
c[0,1,6] 0
c[0,1,7] 0
c[0,1,8] 0
c[0,1,9] 0
c[0,1,10] 0
c[0,1,11] 0
c[0,1,12] 0
c[0,1,13] 0
c[0,1,14] 0
c[0,1,15] 0
c[0,1,16] 0
c[0,1,17] 0
c[0,1,18] 0
c[0,1,19] 0
c[0,1,20] 0
c[0,1,21] 0
c[0,1,22] 0
c[0,1,23] 0
c[0,1,24] 1
c[0,2,0] 0
c[0,2,1] 0
c[0,2,2] 0
c[0,2,3] 0
c[0,2,4] 0
c[0,2,5] 0
c[0,2,6] 0
c[0,2,7] 0
c[0,2,8] 0
c[0,2,9] 0
c[0,2,10] 0
c[0,2,11] 0
c[0,2,12] 0
c[0,2,13] 0
c[0,2,14] 0
c[0,2,15] 0
c[0,2,16] 0
c[0,2,17] 0
c[0,2,18] 0
c[0,2,19] 0
c[0,2,20] 0
c[0,2,21] 0
c[0,2,22] 0
c[0,2,23] 0
c[0,2,24] 1
c[0,3,0] 0
c[0,3,1] 0
c[0,3,2] 0
c[0,3,3] 0
c[0,3,4] 0
c[0,3,5] 0
c[0,3,6] 0
c[0,3,7] 0
c[0,3,8] 0
c[0,3,9] 0
c[0,3,10] 0
c[0,3,11] 0
c[0,3,12] 0
c[0,3,13] 0
c[0,3,14] 0
c[0,3,15] 0
c[0,3,16] 0
c[0,3,17] 0
c[0,3,18] 0
c[0,3,19] 0
c[0,3,20] 0
c[0,3,21] 0
c[0,3,22] 0
c[0,3,23] 0
c[0,3,24] 1
c[1,0,0] 0
c[1,0,1] 0
c[1,0,2] 0
c[1,0,3] 0
c[1,0,4] 0
c[1,0,5] 0
c[1,0,6] 0
c[1,0,7] 0
c[1,0,8] 0
c[1,0,9] 0
c[1,0,10] 0
c[1,0,11] 0
c[1,0,12] 0
c[1,0,13] 0
c[1,0,14] 0
c[1,0,15] 0
c[1,0,16] 0
c[1,0,17] 0
c[1,0,18] 0
c[1,0,19] 0
c[1,0,20] 0
c[1,0,21] 0
c[1,0,22] 0
c[1,0,23] 0
c[1,0,24] 1
c[1,1,0] 0
c[1,1,1] 0
c[1,1,2] 0
c[1,1,3] 0
c[1,1,4] 0
c[1,1,5] 0
c[1,1,6] 0
c[1,1,7] 0
c[1,1,8] 0
c[1,1,9] 0
c[1,1,10] 0
c[1,1,11] 0
c[1,1,12] 0
c[1,1,13] 0
c[1,1,14] 0
c[1,1,15] 0
c[1,1,16] 0
c[1,1,17] 0
c[1,1,18] 0
c[1,1,19] 0
c[1,1,20] 0
c[1,1,21] 0
c[1,1,22] 0
c[1,1,23] 0
c[1,1,24] 1
c[1,2,0] 0
c[1,2,1] 0
c[1,2,2] 0
c[1,2,3] 0
c[1,2,4] 0
c[1,2,5] 0
c[1,2,6] 0
c[1,2,7] 0
c[1,2,8] 0
c[1,2,9] 0
c[1,2,10] 0
c[1,2,11] 0
c[1,2,12] 0
c[1,2,13] 0
c[1,2,14] 0
c[1,2,15] 0
c[1,2,16] 0
c[1,2,17] 0
c[1,2,18] 0
c[1,2,19] 0
c[1,2,20] 0
c[1,2,21] 0
c[1,2,22] 0
c[1,2,23] 0
c[1,2,24] 1
c[1,3,0] 0
c[1,3,1] 0
c[1,3,2] 0
c[1,3,3] 0
c[1,3,4] 0
c[1,3,5] 0
c[1,3,6] 0
c[1,3,7] 0
c[1,3,8] 0
c[1,3,9] 0
c[1,3,10] 0
c[1,3,11] 0
c[1,3,12] 0
c[1,3,13] 0
c[1,3,14] 0
c[1,3,15] 0
c[1,3,16] 0
c[1,3,17] 0
c[1,3,18] 0
c[1,3,19] 0
c[1,3,20] 0
c[1,3,21] 0
c[1,3,22] 0
c[1,3,23] 0
c[1,3,24] 1
c[2,0,0] 0
c[2,0,1] 0
c[2,0,2] 0
c[2,0,3] 0
c[2,0,4] 0
c[2,0,5] 0
c[2,0,6] 0
c[2,0,7] 0
c[2,0,8] 0
c[2,0,9] 0
c[2,0,10] 0
c[2,0,11] 0
c[2,0,12] 0
c[2,0,13] 0
c[2,0,14] 0
c[2,0,15] 0
c[2,0,16] 0
c[2,0,17] 0
c[2,0,18] 0
c[2,0,19] 0
c[2,0,20] 0
c[2,0,21] 0
c[2,0,22] 0
c[2,0,23] 0
c[2,0,24] 1
c[2,1,0] 0
c[2,1,1] 0
c[2,1,2] 0
c[2,1,3] 0
c[2,1,4] 0
c[2,1,5] 0
c[2,1,6] 0
c[2,1,7] 0
c[2,1,8] 0
c[2,1,9] 0
c[2,1,10] 0
c[2,1,11] 0
c[2,1,12] 0
c[2,1,13] 0
c[2,1,14] 0
c[2,1,15] 0
c[2,1,16] 0
c[2,1,17] 0
c[2,1,18] 0
c[2,1,19] 0
c[2,1,20] 0
c[2,1,21] 0
c[2,1,22] 0
c[2,1,23] 0
c[2,1,24] 1
c[2,2,0] 0
c[2,2,1] 0
c[2,2,2] 0
c[2,2,3] 0
c[2,2,4] 0
c[2,2,5] 0
c[2,2,6] 0
c[2,2,7] 0
c[2,2,8] 0
c[2,2,9] 0
c[2,2,10] 0
c[2,2,11] 0
c[2,2,12] 0
c[2,2,13] 0
c[2,2,14] 0
c[2,2,15] 0
c[2,2,16] 0
c[2,2,17] 0
c[2,2,18] 0
c[2,2,19] 0
c[2,2,20] 0
c[2,2,21] 0
c[2,2,22] 0
c[2,2,23] 0
c[2,2,24] 1
c[2,3,0] 0
c[2,3,1] 0
c[2,3,2] 0
c[2,3,3] 0
c[2,3,4] 0
c[2,3,5] 0
c[2,3,6] 0
c[2,3,7] 0
c[2,3,8] 0
c[2,3,9] 0
c[2,3,10] 0
c[2,3,11] 0
c[2,3,12] 0
c[2,3,13] 0
c[2,3,14] 0
c[2,3,15] 0
c[2,3,16] 0
c[2,3,17] 0
c[2,3,18] 0
c[2,3,19] 0
c[2,3,20] 0
c[2,3,21] 0
c[2,3,22] 0
c[2,3,23] 0
c[2,3,24] 1
c[3,0,0] 0
c[3,0,1] 0
c[3,0,2] 0
c[3,0,3] 0
c[3,0,4] 0
c[3,0,5] 0
c[3,0,6] 0
c[3,0,7] 0
c[3,0,8] 0
c[3,0,9] 0
c[3,0,10] 0
c[3,0,11] 0
c[3,0,12] 0
c[3,0,13] 0
c[3,0,14] 0
c[3,0,15] 0
c[3,0,16] 0
c[3,0,17] 0
c[3,0,18] 0
c[3,0,19] 0
c[3,0,20] 0
c[3,0,21] 0
c[3,0,22] 0
c[3,0,23] 0
c[3,0,24] 1
c[3,1,0] 0
c[3,1,1] 0
c[3,1,2] 0
c[3,1,3] 0
c[3,1,4] 0
c[3,1,5] 0
c[3,1,6] 0
c[3,1,7] 0
c[3,1,8] 0
c[3,1,9] 0
c[3,1,10] 0
c[3,1,11] 0
c[3,1,12] 0
c[3,1,13] 0
c[3,1,14] 0
c[3,1,15] 0
c[3,1,16] 0
c[3,1,17] 0
c[3,1,18] 0
c[3,1,19] 0
c[3,1,20] 0
c[3,1,21] 0
c[3,1,22] 0
c[3,1,23] 0
c[3,1,24] 1
c[3,2,0] 0
c[3,2,1] 0
c[3,2,2] 0
c[3,2,3] 0
c[3,2,4] 0
c[3,2,5] 0
c[3,2,6] 0
c[3,2,7] 0
c[3,2,8] 0
c[3,2,9] 0
c[3,2,10] 0
c[3,2,11] 0
c[3,2,12] 0
c[3,2,13] 0
c[3,2,14] 0
c[3,2,15] 0
c[3,2,16] 0
c[3,2,17] 0
c[3,2,18] 0
c[3,2,19] 0
c[3,2,20] 0
c[3,2,21] 0
c[3,2,22] 0
c[3,2,23] 0
c[3,2,24] 1
c[3,3,0] 0
c[3,3,1] 0
c[3,3,2] 0
c[3,3,3] 0
c[3,3,4] 0
c[3,3,5] 0
c[3,3,6] 0
c[3,3,7] 0
c[3,3,8] 0
c[3,3,9] 0
c[3,3,10] 0
c[3,3,11] 0
c[3,3,12] 0
c[3,3,13] 0
c[3,3,14] 0
c[3,3,15] 0
c[3,3,16] 0
c[3,3,17] 0
c[3,3,18] 0
c[3,3,19] 0
c[3,3,20] 0
c[3,3,21] 0
c[3,3,22] 0
c[3,3,23] 0
c[3,3,24] 1
b[0,0,0] 0
b[0,0,1] 0
b[0,0,2] 0
b[0,0,3] 0
b[0,0,4] 0
b[0,0,5] 0
b[0,0,6] 0
b[0,0,7] 0
b[0,0,8] 0
b[0,0,9] 0
b[0,0,10] 0
b[0,0,11] 0
b[0,0,12] 0
b[0,0,13] 0
b[0,1,0] 0
b[0,1,1] 0
b[0,1,2] 0
b[0,1,3] 0
b[0,1,4] 0
b[0,1,5] 0
b[0,1,6] 0
b[0,1,7] 0
b[0,1,8] 0
b[0,1,9] 0
b[0,1,10] 0
b[0,1,11] 0
b[0,1,12] 0
b[0,1,13] 0
b[0,2,0] 0
b[0,2,1] 0
b[0,2,2] 0
b[0,2,3] 0
b[0,2,4] 0
b[0,2,5] 0
b[0,2,6] 0
b[0,2,7] 0
b[0,2,8] 0
b[0,2,9] 0
b[0,2,10] 0
b[0,2,11] 0
b[0,2,12] 0
b[0,2,13] 0
b[0,3,0] 0
b[0,3,1] 0
b[0,3,2] 0
b[0,3,3] 0
b[0,3,4] 0
b[0,3,5] 0
b[0,3,6] 0
b[0,3,7] 0
b[0,3,8] 0
b[0,3,9] 0
b[0,3,10] 0
b[0,3,11] 0
b[0,3,12] 0
b[0,3,13] 0
b[1,0,0] 0
b[1,0,1] 0
b[1,0,2] 0
b[1,0,3] 0
b[1,0,4] 0
b[1,0,5] 0
b[1,0,6] 0
b[1,0,7] 0
b[1,0,8] 0
b[1,0,9] 0
b[1,0,10] 0
b[1,0,11] 0
b[1,0,12] 0
b[1,0,13] 0
b[1,1,0] 0
b[1,1,1] 0
b[1,1,2] 0
b[1,1,3] 0
b[1,1,4] 0
b[1,1,5] 0
b[1,1,6] 0
b[1,1,7] 0
b[1,1,8] 0
b[1,1,9] 0
b[1,1,10] 0
b[1,1,11] 0
b[1,1,12] 0
b[1,1,13] 0
b[1,2,0] 0
b[1,2,1] 0
b[1,2,2] 0
b[1,2,3] 0
b[1,2,4] 0
b[1,2,5] 0
b[1,2,6] 0
b[1,2,7] 0
b[1,2,8] 0
b[1,2,9] 0
b[1,2,10] 0
b[1,2,11] 0
b[1,2,12] 0
b[1,2,13] 0
b[1,3,0] 0
b[1,3,1] 0
b[1,3,2] 0
b[1,3,3] 0
b[1,3,4] 0
b[1,3,5] 0
b[1,3,6] 0
b[1,3,7] 0
b[1,3,8] 0
b[1,3,9] 0
b[1,3,10] 0
b[1,3,11] 0
b[1,3,12] 0
b[1,3,13] 0
b[2,0,0] 0
b[2,0,1] 0
b[2,0,2] 0
b[2,0,3] 0
b[2,0,4] 0
b[2,0,5] 0
b[2,0,6] 0
b[2,0,7] 0
b[2,0,8] 0
b[2,0,9] 0
b[2,0,10] 0
b[2,0,11] 0
b[2,0,12] 0
b[2,0,13] 0
b[2,1,0] 0
b[2,1,1] 0
b[2,1,2] 0
b[2,1,3] 0
b[2,1,4] 0
b[2,1,5] 0
b[2,1,6] 0
b[2,1,7] 0
b[2,1,8] 0
b[2,1,9] 0
b[2,1,10] 0
b[2,1,11] 0
b[2,1,12] 0
b[2,1,13] 0
b[2,2,0] 0
b[2,2,1] 0
b[2,2,2] 0
b[2,2,3] 0
b[2,2,4] 0
b[2,2,5] 0
b[2,2,6] 0
b[2,2,7] 0
b[2,2,8] 0
b[2,2,9] 0
b[2,2,10] 0
b[2,2,11] 0
b[2,2,12] 0
b[2,2,13] 0
b[2,3,0] 0
b[2,3,1] 0
b[2,3,2] 0
b[2,3,3] 0
b[2,3,4] 0
b[2,3,5] 0
b[2,3,6] 0
b[2,3,7] 0
b[2,3,8] 0
b[2,3,9] 0
b[2,3,10] 0
b[2,3,11] 0
b[2,3,12] 0
b[2,3,13] 0
b[3,0,0] 0
b[3,0,1] 0
b[3,0,2] 0
b[3,0,3] 0
b[3,0,4] 0
b[3,0,5] 0
b[3,0,6] 0
b[3,0,7] 0
b[3,0,8] 0
b[3,0,9] 0
b[3,0,10] 0
b[3,0,11] 0
b[3,0,12] 0
b[3,0,13] 0
b[3,1,0] 0
b[3,1,1] 0
b[3,1,2] 0
b[3,1,3] 0
b[3,1,4] 0
b[3,1,5] 0
b[3,1,6] 0
b[3,1,7] 0
b[3,1,8] 0
b[3,1,9] 0
b[3,1,10] 0
b[3,1,11] 0
b[3,1,12] 0
b[3,1,13] 0
b[3,2,0] 0
b[3,2,1] 0
b[3,2,2] 0
b[3,2,3] 0
b[3,2,4] 0
b[3,2,5] 0
b[3,2,6] 0
b[3,2,7] 0
b[3,2,8] 0
b[3,2,9] 0
b[3,2,10] 0
b[3,2,11] 0
b[3,2,12] 0
b[3,2,13] 0
b[3,3,0] 0
b[3,3,1] 0
b[3,3,2] 0
b[3,3,3] 0
b[3,3,4] 0
b[3,3,5] 0
b[3,3,6] 0
b[3,3,7] 0
b[3,3,8] 0
b[3,3,9] 0
b[3,3,10] 0
b[3,3,11] 0
b[3,3,12] 0
b[3,3,13] 0
sp[0,0] 0.25
sp[0,1] 0.25
sp[0,2] 0.25
sp[0,3] 0.25
sp[1,0] 0.25
sp[1,1] 0.25
sp[1,2] 0.25
sp[1,3] 0.25
sp[2,0] 0.25
sp[2,1] 0.25
sp[2,2] 0.25
sp[2,3] 0.25
sp[3,0] 0.25
sp[3,1] 0.25
sp[3,2] 0.25
sp[3,3] 0.25
d_plus[0] 4
d_plus[1] 4
d_plus[2] 4
d_plus[3] 4
p[0,0] 24
p[0,1] 24
p[0,2] 24
p[0,3] 24
p[1,0] 24
p[1,1] 24
p[1,2] 24
p[1,3] 24
p[2,0] 24
p[2,1] 24
p[2,2] 24
p[2,3] 24
p[3,0] 24
p[3,1] 24
p[3,2] 24
p[3,3] 24
t[0,0] 0.25
t[0,1] 0.25
t[0,2] 0.25
t[0,3] 0.25
t[1,0] 0.25
t[1,1] 0.25
t[1,2] 0.25
t[1,3] 0.25
t[2,0] 0.25
t[2,1] 0.25
t[2,2] 2.4999999999998263e-01
t[2,3] 0.25
t[3,0] 0.25
t[3,1] 0.25
t[3,2] 0.25
t[3,3] 0.25
h_prime[0,0] 1.9687069803556548e-01
h_prime[0,1] 7.4018080715127454e-01
h_prime[0,2] 0
h_prime[0,3] 5.2458731031521189e-01
h_prime[0,4] 0
h_prime[0,5] 0
h_prime[0,6] 9.0576093674270530e-01
h_prime[0,7] 0
h_prime[0,8] 8.4797758457499728e-01
h_prime[0,9] 7.8947727671616574e-01
h_prime[0,10] 0
h_prime[0,11] 0
h_prime[0,12] 0
h_prime[0,13] 0
h_prime[0,14] 0
h_prime[0,15] 4.7341908141093814e-01
h_prime[0,16] 0
h_prime[0,17] 1.0274308957351583e+00
h_prime[0,18] 2.3206586278403721e-01
h_prime[0,19] 1.0777458538038140e+00
h_prime[0,20] 1.5265902248381863e-01
h_prime[0,21] 7.5923474672240462e-02
h_prime[0,22] 0
h_prime[0,23] 0.0616313602463192
h_prime[0,24] 0.534695675660903
h_prime[0,25] 0.52041266251882
h_prime[0,26] 0
h_prime[0,27] 4.8844251314690440e-01
h_prime[0,28] 4.0830994857535152e-01
h_prime[0,29] 7.6950776719092551e-01
h_prime[0,30] 1.0695169408981164e-01
h_prime[0,31] 0
h_prime[1,0] 1.9687077253273663e-01
h_prime[1,1] 7.4018072637015964e-01
h_prime[1,2] 0
h_prime[1,3] 5.2458735961129566e-01
h_prime[1,4] 0
h_prime[1,5] 0
h_prime[1,6] 9.0576096356849767e-01
h_prime[1,7] 0
h_prime[1,8] 8.4797763148342087e-01
h_prime[1,9] 7.8947729462146621e-01
h_prime[1,10] 0
h_prime[1,11] 0
h_prime[1,12] 0
h_prime[1,13] 0
h_prime[1,14] 0
h_prime[1,15] 4.7341914263031981e-01
h_prime[1,16] 0
h_prime[1,17] 1.0274308300518038e+00
h_prime[1,18] 2.3206584667904076e-01
h_prime[1,19] 1.0777458276829401e+00
h_prime[1,20] 1.5265897608083989e-01
h_prime[1,21] 7.5923432130133264e-02
h_prime[1,22] 0
h_prime[1,23] 6.1631391810660657e-02
h_prime[1,24] 5.3469575199877073e-01
h_prime[1,25] 5.2041258640300880e-01
h_prime[1,26] 0
h_prime[1,27] 4.8844243517658120e-01
h_prime[1,28] 4.0831002455515569e-01
h_prime[1,29] 7.6950780798085472e-01
h_prime[1,30] 1.0695174086874804e-01
h_prime[1,31] 0
h_prime[2,0] 1.9687069803556204e-01
h_prime[2,1] 7.4018080715126211e-01
h_prime[2,2] 0
h_prime[2,3] 0.524587310315203
h_prime[2,4] 0
h_prime[2,5] 0
h_prime[2,6] 9.0576093674269020e-01
h_prime[2,7] 0
h_prime[2,8] 8.4797758457498340e-01
h_prime[2,9] 7.8947727671615275e-01
h_prime[2,10] 0
h_prime[2,11] 0
h_prime[2,12] 0
h_prime[2,13] 0
h_prime[2,14] 0
h_prime[2,15] 4.7341908141093048e-01
h_prime[2,16] 0
h_prime[2,17] 1.0274308957351401e+00
h_prime[2,18] 2.3206586278403304e-01
h_prime[2,19] 1.0777458538037954e+00
h_prime[2,20] 1.5265902248381602e-01
h_prime[2,21] 7.5923474672239491e-02
h_prime[2,22] 0
h_prime[2,23] 6.1631360246318330e-02
h_prime[2,24] 5.3469567566089415e-01
h_prime[2,25] 0.520412662518811
h_prime[2,26] 0
h_prime[2,27] 4.8844251314689618e-01
h_prime[2,28] 4.0830994857534447e-01
h_prime[2,29] 7.6950776719091252e-01
h_prime[2,30] 0.10695169408981
h_prime[2,31] 0
h_prime[3,0] 1.9687069803556567e-01
h_prime[3,1] 7.4018080715127521e-01
h_prime[3,2] 0
h_prime[3,3] 5.2458731031521177e-01
h_prime[3,4] 0
h_prime[3,5] 0
h_prime[3,6] 9.0576093674270564e-01
h_prime[3,7] 0
h_prime[3,8] 8.4797758457499783e-01
h_prime[3,9] 7.8947727671616630e-01
h_prime[3,10] 0
h_prime[3,11] 0
h_prime[3,12] 0
h_prime[3,13] 0
h_prime[3,14] 0
h_prime[3,15] 4.7341908141093808e-01
h_prime[3,16] 0
h_prime[3,17] 1.0274308957351586e+00
h_prime[3,18] 2.3206586278403740e-01
h_prime[3,19] 1.0777458538038143e+00
h_prime[3,20] 1.5265902248381868e-01
h_prime[3,21] 7.5923474672240268e-02
h_prime[3,22] 0
h_prime[3,23] 6.1631360246319093e-02
h_prime[3,24] 5.3469567566090337e-01
h_prime[3,25] 0.52041266251882
h_prime[3,26] 0
h_prime[3,27] 4.8844251314690451e-01
h_prime[3,28] 4.0830994857535169e-01
h_prime[3,29] 7.6950776719092584e-01
h_prime[3,30] 1.0695169408981162e-01
h_prime[3,31] 0
x_0_0_0_GCN 5.5017588287591934e-01
s_0_0_0_GCN 0
z_0_0_0_GCN 1
x_0_0_1_GCN 1.0932512581348419e-01
s_0_0_1_GCN 0
z_0_0_1_GCN 1
x_0_0_2_GCN 0
s_0_0_2_GCN 2.4006782472133636e-01
z_0_0_2_GCN 0
x_0_0_3_GCN 3.6609605420380831e-02
s_0_0_3_GCN 0
z_0_0_3_GCN 1
x_0_0_4_GCN 1.6563269076868892e-01
s_0_0_4_GCN 0
z_0_0_4_GCN 1
x_0_0_5_GCN 3.7821965478360653e-01
s_0_0_5_GCN 0
z_0_0_5_GCN 1
x_0_0_6_GCN 2.7159975469112396e-01
s_0_0_6_GCN 0
z_0_0_6_GCN 1
x_0_0_7_GCN 0
s_0_0_7_GCN 2.7084426581859589e-01
z_0_0_7_GCN 0
x_0_0_8_GCN 1.4257301390171051e-01
s_0_0_8_GCN 0
z_0_0_8_GCN 1
x_0_0_9_GCN 0
s_0_0_9_GCN 4.6473951637744904e-01
z_0_0_9_GCN 0
x_0_0_10_GCN 5.6518049910664558e-02
s_0_0_10_GCN 0
z_0_0_10_GCN 1
x_0_0_11_GCN 1.4615399390459061e-01
s_0_0_11_GCN 0
z_0_0_11_GCN 1
x_0_0_12_GCN 6.1353806406259537e-02
s_0_0_12_GCN 0
z_0_0_12_GCN 1
x_0_0_13_GCN 1.4857958257198334e-01
s_0_0_13_GCN 0
z_0_0_13_GCN 1
x_0_0_14_GCN 0
s_0_0_14_GCN 1.4187581092119217e-01
z_0_0_14_GCN 0
x_0_0_15_GCN 0
s_0_0_15_GCN 6.6186486184597015e-01
z_0_0_15_GCN 0
x_0_0_16_GCN 0
s_0_0_16_GCN 5.7835404499201104e-02
z_0_0_16_GCN 0
x_0_0_17_GCN 6.0446206480264664e-03
s_0_0_17_GCN 0
z_0_0_17_GCN 1
x_0_0_18_GCN 4.7952256351709366e-01
s_0_0_18_GCN 0
z_0_0_18_GCN 1
x_0_0_19_GCN 3.1171433627605438e-01
s_0_0_19_GCN 0
z_0_0_19_GCN 1
x_0_0_20_GCN 2.1356961503624916e-01
s_0_0_20_GCN 0
z_0_0_20_GCN 1
x_0_0_21_GCN 6.0630597174167633e-02
s_0_0_21_GCN 0
z_0_0_21_GCN 1
x_0_0_22_GCN 4.2539365217089653e-01
s_0_0_22_GCN 0
z_0_0_22_GCN 1
x_0_0_23_GCN 0
s_0_0_23_GCN 1.7131633125245571e-01
z_0_0_23_GCN 0
x_0_0_24_GCN 1.6979572176933289e-01
s_0_0_24_GCN 0
z_0_0_24_GCN 1
x_0_0_25_GCN 2.3487541824579239e-01
s_0_0_25_GCN 0
z_0_0_25_GCN 1
x_0_0_26_GCN 3.8237327709794044e-02
s_0_0_26_GCN 0
z_0_0_26_GCN 1
x_0_0_27_GCN 4.5425991341471672e-01
s_0_0_27_GCN 0
z_0_0_27_GCN 1
x_0_0_28_GCN 0
s_0_0_28_GCN 3.3886535465717316e-01
z_0_0_28_GCN 0
x_0_0_29_GCN 1.4692328870296478e-01
s_0_0_29_GCN 0
z_0_0_29_GCN 1
x_0_0_30_GCN 7.8864921629428864e-01
s_0_0_30_GCN 0
z_0_0_30_GCN 1
x_0_0_31_GCN 0
s_0_0_31_GCN 1.5913649275898933e-01
z_0_0_31_GCN 0
x_0_0_32_GCN 2.1111483592540026e-01
s_0_0_32_GCN 0
z_0_0_32_GCN 1
x_0_0_33_GCN 6.5253582596778870e-01
s_0_0_33_GCN 0
z_0_0_33_GCN 1
x_0_0_34_GCN 8.2228355109691620e-02
s_0_0_34_GCN 0
z_0_0_34_GCN 1
x_0_0_35_GCN 5.3895041346549988e-03
s_0_0_35_GCN 0
z_0_0_35_GCN 1
x_0_0_36_GCN 0
s_0_0_36_GCN 1.5175378322601318e-01
z_0_0_36_GCN 0
x_0_0_37_GCN 0
s_0_0_37_GCN 1.3396715372800827e-01
z_0_0_37_GCN 0
x_0_0_38_GCN 0
s_0_0_38_GCN 1.3540294021368027e-01
z_0_0_38_GCN 0
x_0_0_39_GCN 6.6074754297733307e-01
s_0_0_39_GCN 0
z_0_0_39_GCN 1
x_0_0_40_GCN 5.8106794953346252e-02
s_0_0_40_GCN 0
z_0_0_40_GCN 1
x_0_0_41_GCN 0.508297972381115
s_0_0_41_GCN 0
z_0_0_41_GCN 1
x_0_0_42_GCN 5.4733216762542725e-02
s_0_0_42_GCN 0
z_0_0_42_GCN 1
x_0_0_43_GCN 1.7942992970347404e-01
s_0_0_43_GCN 0
z_0_0_43_GCN 1
x_0_0_44_GCN 0
s_0_0_44_GCN 1.5553697571158409e-01
z_0_0_44_GCN 0
x_0_0_45_GCN 0
s_0_0_45_GCN 3.0536450725048780e-01
z_0_0_45_GCN 0
x_0_0_46_GCN 0
s_0_0_46_GCN 5.7627581804990768e-01
z_0_0_46_GCN 0
x_0_0_47_GCN 1.2224152684211731e-02
s_0_0_47_GCN 0
z_0_0_47_GCN 1
x_0_0_48_GCN 2.0789301395416260e-01
s_0_0_48_GCN 0
z_0_0_48_GCN 1
x_0_0_49_GCN 0
s_0_0_49_GCN 1.6103291511535645e-01
z_0_0_49_GCN 0
x_0_0_50_GCN 5.6276899389922619e-01
s_0_0_50_GCN 0
z_0_0_50_GCN 1
x_0_0_51_GCN 1.9529259949922562e-01
s_0_0_51_GCN 0
z_0_0_51_GCN 1
x_0_0_52_GCN 2.2622807323932648e-01
s_0_0_52_GCN 0
z_0_0_52_GCN 1
x_0_0_53_GCN 0
s_0_0_53_GCN 3.8702676817774773e-01
z_0_0_53_GCN 0
x_0_0_54_GCN 0
s_0_0_54_GCN 2.2009445028379560e-01
z_0_0_54_GCN 0
x_0_0_55_GCN 0.165846211835742
s_0_0_55_GCN 0
z_0_0_55_GCN 1
x_0_0_56_GCN 3.1446143984794617e-01
s_0_0_56_GCN 0
z_0_0_56_GCN 1
x_0_0_57_GCN 5.6701757758855820e-01
s_0_0_57_GCN 0
z_0_0_57_GCN 1
x_0_0_58_GCN 1.4425232261419296e-01
s_0_0_58_GCN 0
z_0_0_58_GCN 1
x_0_0_59_GCN 0
s_0_0_59_GCN 1.7364365607500076e-01
z_0_0_59_GCN 0
x_0_0_60_GCN 0
s_0_0_60_GCN 2.2502232342958450e-02
z_0_0_60_GCN 0
x_0_0_61_GCN 4.2933054268360138e-02
s_0_0_61_GCN 0
z_0_0_61_GCN 1
x_0_0_62_GCN 0.046329565346241
s_0_0_62_GCN 0
z_0_0_62_GCN 1
x_0_0_63_GCN 1.6031618416309357e-01
s_0_0_63_GCN 0
z_0_0_63_GCN 1
x_0_1_0_GCN 5.5017588287591934e-01
s_0_1_0_GCN 0
z_0_1_0_GCN 1
x_0_1_1_GCN 1.0932512581348419e-01
s_0_1_1_GCN 0
z_0_1_1_GCN 1
x_0_1_2_GCN 0
s_0_1_2_GCN 2.4006782472133636e-01
z_0_1_2_GCN 0
x_0_1_3_GCN 3.6609605420380831e-02
s_0_1_3_GCN 0
z_0_1_3_GCN 1
x_0_1_4_GCN 1.6563269076868892e-01
s_0_1_4_GCN 0
z_0_1_4_GCN 1
x_0_1_5_GCN 3.7821965478360653e-01
s_0_1_5_GCN 0
z_0_1_5_GCN 1
x_0_1_6_GCN 2.7159975469112396e-01
s_0_1_6_GCN 0
z_0_1_6_GCN 1
x_0_1_7_GCN 0
s_0_1_7_GCN 2.7084426581859589e-01
z_0_1_7_GCN 0
x_0_1_8_GCN 1.4257301390171051e-01
s_0_1_8_GCN 0
z_0_1_8_GCN 1
x_0_1_9_GCN 0
s_0_1_9_GCN 4.6473951637744904e-01
z_0_1_9_GCN 0
x_0_1_10_GCN 5.6518049910664558e-02
s_0_1_10_GCN 0
z_0_1_10_GCN 1
x_0_1_11_GCN 1.4615399390459061e-01
s_0_1_11_GCN 0
z_0_1_11_GCN 1
x_0_1_12_GCN 6.1353806406259537e-02
s_0_1_12_GCN 0
z_0_1_12_GCN 1
x_0_1_13_GCN 1.4857958257198334e-01
s_0_1_13_GCN 0
z_0_1_13_GCN 1
x_0_1_14_GCN 0
s_0_1_14_GCN 1.4187581092119217e-01
z_0_1_14_GCN 0
x_0_1_15_GCN 0
s_0_1_15_GCN 6.6186486184597015e-01
z_0_1_15_GCN 0
x_0_1_16_GCN 0
s_0_1_16_GCN 5.7835404499201104e-02
z_0_1_16_GCN 0
x_0_1_17_GCN 6.0446206480264664e-03
s_0_1_17_GCN 0
z_0_1_17_GCN 1
x_0_1_18_GCN 4.7952256351709366e-01
s_0_1_18_GCN 0
z_0_1_18_GCN 1
x_0_1_19_GCN 3.1171433627605438e-01
s_0_1_19_GCN 0
z_0_1_19_GCN 1
x_0_1_20_GCN 2.1356961503624916e-01
s_0_1_20_GCN 0
z_0_1_20_GCN 1
x_0_1_21_GCN 6.0630597174167633e-02
s_0_1_21_GCN 0
z_0_1_21_GCN 1
x_0_1_22_GCN 4.2539365217089653e-01
s_0_1_22_GCN 0
z_0_1_22_GCN 1
x_0_1_23_GCN 0
s_0_1_23_GCN 1.7131633125245571e-01
z_0_1_23_GCN 0
x_0_1_24_GCN 1.6979572176933289e-01
s_0_1_24_GCN 0
z_0_1_24_GCN 1
x_0_1_25_GCN 2.3487541824579239e-01
s_0_1_25_GCN 0
z_0_1_25_GCN 1
x_0_1_26_GCN 3.8237327709794044e-02
s_0_1_26_GCN 0
z_0_1_26_GCN 1
x_0_1_27_GCN 4.5425991341471672e-01
s_0_1_27_GCN 0
z_0_1_27_GCN 1
x_0_1_28_GCN 0
s_0_1_28_GCN 3.3886535465717316e-01
z_0_1_28_GCN 0
x_0_1_29_GCN 1.4692328870296478e-01
s_0_1_29_GCN 0
z_0_1_29_GCN 1
x_0_1_30_GCN 7.8864921629428864e-01
s_0_1_30_GCN 0
z_0_1_30_GCN 1
x_0_1_31_GCN 0
s_0_1_31_GCN 1.5913649275898933e-01
z_0_1_31_GCN 0
x_0_1_32_GCN 2.1111483592540026e-01
s_0_1_32_GCN 0
z_0_1_32_GCN 1
x_0_1_33_GCN 6.5253582596778870e-01
s_0_1_33_GCN 0
z_0_1_33_GCN 1
x_0_1_34_GCN 8.2228355109691620e-02
s_0_1_34_GCN 0
z_0_1_34_GCN 1
x_0_1_35_GCN 5.3895041346549988e-03
s_0_1_35_GCN 0
z_0_1_35_GCN 1
x_0_1_36_GCN 0
s_0_1_36_GCN 1.5175378322601318e-01
z_0_1_36_GCN 0
x_0_1_37_GCN 0
s_0_1_37_GCN 1.3396715372800827e-01
z_0_1_37_GCN 0
x_0_1_38_GCN 0
s_0_1_38_GCN 1.3540294021368027e-01
z_0_1_38_GCN 0
x_0_1_39_GCN 6.6074754297733307e-01
s_0_1_39_GCN 0
z_0_1_39_GCN 1
x_0_1_40_GCN 5.8106794953346252e-02
s_0_1_40_GCN 0
z_0_1_40_GCN 1
x_0_1_41_GCN 0.508297972381115
s_0_1_41_GCN 0
z_0_1_41_GCN 1
x_0_1_42_GCN 5.4733216762542725e-02
s_0_1_42_GCN 0
z_0_1_42_GCN 1
x_0_1_43_GCN 1.7942992970347404e-01
s_0_1_43_GCN 0
z_0_1_43_GCN 1
x_0_1_44_GCN 0
s_0_1_44_GCN 1.5553697571158409e-01
z_0_1_44_GCN 0
x_0_1_45_GCN 0
s_0_1_45_GCN 3.0536450725048780e-01
z_0_1_45_GCN 0
x_0_1_46_GCN 0
s_0_1_46_GCN 5.7627581804990768e-01
z_0_1_46_GCN 0
x_0_1_47_GCN 1.2224152684211731e-02
s_0_1_47_GCN 0
z_0_1_47_GCN 1
x_0_1_48_GCN 2.0789301395416260e-01
s_0_1_48_GCN 0
z_0_1_48_GCN 1
x_0_1_49_GCN 0
s_0_1_49_GCN 1.6103291511535645e-01
z_0_1_49_GCN 0
x_0_1_50_GCN 5.6276899389922619e-01
s_0_1_50_GCN 0
z_0_1_50_GCN 1
x_0_1_51_GCN 1.9529259949922562e-01
s_0_1_51_GCN 0
z_0_1_51_GCN 1
x_0_1_52_GCN 2.2622807323932648e-01
s_0_1_52_GCN 0
z_0_1_52_GCN 1
x_0_1_53_GCN 0
s_0_1_53_GCN 3.8702676817774773e-01
z_0_1_53_GCN 0
x_0_1_54_GCN 0
s_0_1_54_GCN 2.2009445028379560e-01
z_0_1_54_GCN 0
x_0_1_55_GCN 0.165846211835742
s_0_1_55_GCN 0
z_0_1_55_GCN 1
x_0_1_56_GCN 3.1446143984794617e-01
s_0_1_56_GCN 0
z_0_1_56_GCN 1
x_0_1_57_GCN 5.6701757758855820e-01
s_0_1_57_GCN 0
z_0_1_57_GCN 1
x_0_1_58_GCN 1.4425232261419296e-01
s_0_1_58_GCN 0
z_0_1_58_GCN 1
x_0_1_59_GCN 0
s_0_1_59_GCN 1.7364365607500076e-01
z_0_1_59_GCN 0
x_0_1_60_GCN 0
s_0_1_60_GCN 2.2502232342958450e-02
z_0_1_60_GCN 0
x_0_1_61_GCN 4.2933054268360138e-02
s_0_1_61_GCN 0
z_0_1_61_GCN 1
x_0_1_62_GCN 0.046329565346241
s_0_1_62_GCN 0
z_0_1_62_GCN 1
x_0_1_63_GCN 1.6031618416309357e-01
s_0_1_63_GCN 0
z_0_1_63_GCN 1
x_0_2_0_GCN 5.5017588287591335e-01
s_0_2_0_GCN 0
z_0_2_0_GCN 1
x_0_2_1_GCN 1.0932512581348169e-01
s_0_2_1_GCN 0
z_0_2_1_GCN 1
x_0_2_2_GCN 0
s_0_2_2_GCN 2.4006782472132848e-01
z_0_2_2_GCN 0
x_0_2_3_GCN 3.6609605420378194e-02
s_0_2_3_GCN 0
z_0_2_3_GCN 1
x_0_2_4_GCN 1.6563269076868953e-01
s_0_2_4_GCN 0
z_0_2_4_GCN 1
x_0_2_5_GCN 3.7821965478360126e-01
s_0_2_5_GCN 0
z_0_2_5_GCN 1
x_0_2_6_GCN 2.7159975469112319e-01
s_0_2_6_GCN 0
z_0_2_6_GCN 1
x_0_2_7_GCN 0
s_0_2_7_GCN 2.7084426581859550e-01
z_0_2_7_GCN 0
x_0_2_8_GCN 1.4257301390170940e-01
s_0_2_8_GCN 0
z_0_2_8_GCN 1
x_0_2_9_GCN 0
s_0_2_9_GCN 4.6473951637744548e-01
z_0_2_9_GCN 0
x_0_2_10_GCN 5.6518049910663171e-02
s_0_2_10_GCN 0
z_0_2_10_GCN 1
x_0_2_11_GCN 1.4615399390458741e-01
s_0_2_11_GCN 0
z_0_2_11_GCN 1
x_0_2_12_GCN 6.1353806406258343e-02
s_0_2_12_GCN 0
z_0_2_12_GCN 1
x_0_2_13_GCN 1.4857958257198314e-01
s_0_2_13_GCN 0
z_0_2_13_GCN 1
x_0_2_14_GCN 0
s_0_2_14_GCN 1.4187581092119175e-01
z_0_2_14_GCN 0
x_0_2_15_GCN 0
s_0_2_15_GCN 6.6186486184596260e-01
z_0_2_15_GCN 0
x_0_2_16_GCN 0
s_0_2_16_GCN 5.7835404499200889e-02
z_0_2_16_GCN 0
x_0_2_17_GCN 6.0446206480259043e-03
s_0_2_17_GCN 0
z_0_2_17_GCN 1
x_0_2_18_GCN 4.7952256351708927e-01
s_0_2_18_GCN 0
z_0_2_18_GCN 1
x_0_2_19_GCN 3.1171433627604817e-01
s_0_2_19_GCN 0
z_0_2_19_GCN 1
x_0_2_20_GCN 2.1356961503624575e-01
s_0_2_20_GCN 0
z_0_2_20_GCN 1
x_0_2_21_GCN 6.0630597174164268e-02
s_0_2_21_GCN 0
z_0_2_21_GCN 1
x_0_2_22_GCN 4.2539365217089015e-01
s_0_2_22_GCN 0
z_0_2_22_GCN 1
x_0_2_23_GCN 0
s_0_2_23_GCN 1.7131633125245141e-01
z_0_2_23_GCN 0
x_0_2_24_GCN 1.6979572176932903e-01
s_0_2_24_GCN 0
z_0_2_24_GCN 1
x_0_2_25_GCN 2.3487541824579025e-01
s_0_2_25_GCN 0
z_0_2_25_GCN 1
x_0_2_26_GCN 3.8237327709789687e-02
s_0_2_26_GCN 0
z_0_2_26_GCN 1
x_0_2_27_GCN 4.5425991341471422e-01
s_0_2_27_GCN 0
z_0_2_27_GCN 1
x_0_2_28_GCN 0
s_0_2_28_GCN 3.3886535465716844e-01
z_0_2_28_GCN 0
x_0_2_29_GCN 1.4692328870296456e-01
s_0_2_29_GCN 0
z_0_2_29_GCN 1
x_0_2_30_GCN 7.8864921629427820e-01
s_0_2_30_GCN 0
z_0_2_30_GCN 1
x_0_2_31_GCN 0
s_0_2_31_GCN 1.5913649275898689e-01
z_0_2_31_GCN 0
x_0_2_32_GCN 2.1111483592539815e-01
s_0_2_32_GCN 0
z_0_2_32_GCN 1
x_0_2_33_GCN 6.5253582596777937e-01
s_0_2_33_GCN 0
z_0_2_33_GCN 1
x_0_2_34_GCN 8.2228355109688178e-02
s_0_2_34_GCN 0
z_0_2_34_GCN 1
x_0_2_35_GCN 5.3895041346505163e-03
s_0_2_35_GCN 0
z_0_2_35_GCN 1
x_0_2_36_GCN 0
s_0_2_36_GCN 1.5175378322601218e-01
z_0_2_36_GCN 0
x_0_2_37_GCN 0
s_0_2_37_GCN 1.3396715372800538e-01
z_0_2_37_GCN 0
x_0_2_38_GCN 0
s_0_2_38_GCN 1.3540294021368202e-01
z_0_2_38_GCN 0
x_0_2_39_GCN 6.6074754297732485e-01
s_0_2_39_GCN 0
z_0_2_39_GCN 1
x_0_2_40_GCN 5.8106794953349444e-02
s_0_2_40_GCN 0
z_0_2_40_GCN 1
x_0_2_41_GCN 5.0829797238111185e-01
s_0_2_41_GCN 0
z_0_2_41_GCN 1
x_0_2_42_GCN 5.4733216762545930e-02
s_0_2_42_GCN 0
z_0_2_42_GCN 1
x_0_2_43_GCN 1.7942992970347221e-01
s_0_2_43_GCN 0
z_0_2_43_GCN 1
x_0_2_44_GCN 0
s_0_2_44_GCN 1.5553697571158720e-01
z_0_2_44_GCN 0
x_0_2_45_GCN 0
s_0_2_45_GCN 3.0536450725048236e-01
z_0_2_45_GCN 0
x_0_2_46_GCN 0
s_0_2_46_GCN 5.7627581804990213e-01
z_0_2_46_GCN 0
x_0_2_47_GCN 1.2224152684210315e-02
s_0_2_47_GCN 0
z_0_2_47_GCN 1
x_0_2_48_GCN 2.0789301395415316e-01
s_0_2_48_GCN 0
z_0_2_48_GCN 1
x_0_2_49_GCN 0
s_0_2_49_GCN 1.6103291511535694e-01
z_0_2_49_GCN 0
x_0_2_50_GCN 5.6276899389922175e-01
s_0_2_50_GCN 0
z_0_2_50_GCN 1
x_0_2_51_GCN 1.9529259949921837e-01
s_0_2_51_GCN 0
z_0_2_51_GCN 1
x_0_2_52_GCN 2.2622807323932453e-01
s_0_2_52_GCN 0
z_0_2_52_GCN 1
x_0_2_53_GCN 0
s_0_2_53_GCN 3.8702676817774134e-01
z_0_2_53_GCN 0
x_0_2_54_GCN 0
s_0_2_54_GCN 2.2009445028379362e-01
z_0_2_54_GCN 0
x_0_2_55_GCN 1.6584621183573994e-01
s_0_2_55_GCN 0
z_0_2_55_GCN 1
x_0_2_56_GCN 3.1446143984794422e-01
s_0_2_56_GCN 0
z_0_2_56_GCN 1
x_0_2_57_GCN 5.6701757758855353e-01
s_0_2_57_GCN 0
z_0_2_57_GCN 1
x_0_2_58_GCN 1.4425232261419182e-01
s_0_2_58_GCN 0
z_0_2_58_GCN 1
x_0_2_59_GCN 0
s_0_2_59_GCN 1.7364365607499946e-01
z_0_2_59_GCN 0
x_0_2_60_GCN 0
s_0_2_60_GCN 2.2502232342957132e-02
z_0_2_60_GCN 0
x_0_2_61_GCN 4.2933054268355059e-02
s_0_2_61_GCN 0
z_0_2_61_GCN 1
x_0_2_62_GCN 4.6329565346237792e-02
s_0_2_62_GCN 0
z_0_2_62_GCN 1
x_0_2_63_GCN 1.6031618416309362e-01
s_0_2_63_GCN 0
z_0_2_63_GCN 1
x_0_3_0_GCN 5.5017588287591912e-01
s_0_3_0_GCN 0
z_0_3_0_GCN 1
x_0_3_1_GCN 1.0932512581348423e-01
s_0_3_1_GCN 0
z_0_3_1_GCN 1
x_0_3_2_GCN 0
s_0_3_2_GCN 2.4006782472133659e-01
z_0_3_2_GCN 0
x_0_3_3_GCN 3.6609605420380935e-02
s_0_3_3_GCN 0
z_0_3_3_GCN 1
x_0_3_4_GCN 1.6563269076868875e-01
s_0_3_4_GCN 0
z_0_3_4_GCN 1
x_0_3_5_GCN 3.7821965478360642e-01
s_0_3_5_GCN 0
z_0_3_5_GCN 1
x_0_3_6_GCN 2.7159975469112374e-01
s_0_3_6_GCN 0
z_0_3_6_GCN 1
x_0_3_7_GCN 0
s_0_3_7_GCN 2.7084426581859561e-01
z_0_3_7_GCN 0
x_0_3_8_GCN 1.4257301390171043e-01
s_0_3_8_GCN 0
z_0_3_8_GCN 1
x_0_3_9_GCN 0
s_0_3_9_GCN 4.6473951637744876e-01
z_0_3_9_GCN 0
x_0_3_10_GCN 5.6518049910664586e-02
s_0_3_10_GCN 0
z_0_3_10_GCN 1
x_0_3_11_GCN 1.4615399390459066e-01
s_0_3_11_GCN 0
z_0_3_11_GCN 1
x_0_3_12_GCN 6.1353806406259551e-02
s_0_3_12_GCN 0
z_0_3_12_GCN 1
x_0_3_13_GCN 1.4857958257198320e-01
s_0_3_13_GCN 0
z_0_3_13_GCN 1
x_0_3_14_GCN 0
s_0_3_14_GCN 1.4187581092119206e-01
z_0_3_14_GCN 0
x_0_3_15_GCN 0
s_0_3_15_GCN 6.6186486184596993e-01
z_0_3_15_GCN 0
x_0_3_16_GCN 0
s_0_3_16_GCN 5.7835404499201062e-02
z_0_3_16_GCN 0
x_0_3_17_GCN 6.0446206480264924e-03
s_0_3_17_GCN 0
z_0_3_17_GCN 1
x_0_3_18_GCN 4.7952256351709344e-01
s_0_3_18_GCN 0
z_0_3_18_GCN 1
x_0_3_19_GCN 3.1171433627605444e-01
s_0_3_19_GCN 0
z_0_3_19_GCN 1
x_0_3_20_GCN 2.1356961503624916e-01
s_0_3_20_GCN 0
z_0_3_20_GCN 1
x_0_3_21_GCN 6.0630597174167765e-02
s_0_3_21_GCN 0
z_0_3_21_GCN 1
x_0_3_22_GCN 4.2539365217089647e-01
s_0_3_22_GCN 0
z_0_3_22_GCN 1
x_0_3_23_GCN 0
s_0_3_23_GCN 1.7131633125245579e-01
z_0_3_23_GCN 0
x_0_3_24_GCN 1.6979572176933294e-01
s_0_3_24_GCN 0
z_0_3_24_GCN 1
x_0_3_25_GCN 2.3487541824579228e-01
s_0_3_25_GCN 0
z_0_3_25_GCN 1
x_0_3_26_GCN 3.8237327709794239e-02
s_0_3_26_GCN 0
z_0_3_26_GCN 1
x_0_3_27_GCN 4.5425991341471639e-01
s_0_3_27_GCN 0
z_0_3_27_GCN 1
x_0_3_28_GCN 0
s_0_3_28_GCN 3.3886535465717310e-01
z_0_3_28_GCN 0
x_0_3_29_GCN 1.4692328870296464e-01
s_0_3_29_GCN 0
z_0_3_29_GCN 1
x_0_3_30_GCN 7.8864921629428841e-01
s_0_3_30_GCN 0
z_0_3_30_GCN 1
x_0_3_31_GCN 0
s_0_3_31_GCN 1.5913649275898931e-01
z_0_3_31_GCN 0
x_0_3_32_GCN 2.1111483592540015e-01
s_0_3_32_GCN 0
z_0_3_32_GCN 1
x_0_3_33_GCN 6.5253582596778859e-01
s_0_3_33_GCN 0
z_0_3_33_GCN 1
x_0_3_34_GCN 8.2228355109691731e-02
s_0_3_34_GCN 0
z_0_3_34_GCN 1
x_0_3_35_GCN 5.3895041346552347e-03
s_0_3_35_GCN 0
z_0_3_35_GCN 1
x_0_3_36_GCN 0
s_0_3_36_GCN 1.5175378322601310e-01
z_0_3_36_GCN 0
x_0_3_37_GCN 0
s_0_3_37_GCN 1.3396715372800830e-01
z_0_3_37_GCN 0
x_0_3_38_GCN 0
s_0_3_38_GCN 1.3540294021368005e-01
z_0_3_38_GCN 0
x_0_3_39_GCN 6.6074754297733285e-01
s_0_3_39_GCN 0
z_0_3_39_GCN 1
x_0_3_40_GCN 5.8106794953346030e-02
s_0_3_40_GCN 0
z_0_3_40_GCN 1
x_0_3_41_GCN 5.0829797238111463e-01
s_0_3_41_GCN 0
z_0_3_41_GCN 1
x_0_3_42_GCN 0.0547332167625425
s_0_3_42_GCN 0
z_0_3_42_GCN 1
x_0_3_43_GCN 1.7942992970347396e-01
s_0_3_43_GCN 0
z_0_3_43_GCN 1
x_0_3_44_GCN 0
s_0_3_44_GCN 1.5553697571158376e-01
z_0_3_44_GCN 0
x_0_3_45_GCN 0
s_0_3_45_GCN 3.0536450725048780e-01
z_0_3_45_GCN 0
x_0_3_46_GCN 0
s_0_3_46_GCN 5.7627581804990746e-01
z_0_3_46_GCN 0
x_0_3_47_GCN 1.2224152684211797e-02
s_0_3_47_GCN 0
z_0_3_47_GCN 1
x_0_3_48_GCN 2.0789301395416293e-01
s_0_3_48_GCN 0
z_0_3_48_GCN 1
x_0_3_49_GCN 0
s_0_3_49_GCN 1.6103291511535628e-01
z_0_3_49_GCN 0
x_0_3_50_GCN 5.6276899389922586e-01
s_0_3_50_GCN 0
z_0_3_50_GCN 1
x_0_3_51_GCN 1.9529259949922584e-01
s_0_3_51_GCN 0
z_0_3_51_GCN 1
x_0_3_52_GCN 2.2622807323932637e-01
s_0_3_52_GCN 0
z_0_3_52_GCN 1
x_0_3_53_GCN 0
s_0_3_53_GCN 3.8702676817774773e-01
z_0_3_53_GCN 0
x_0_3_54_GCN 0
s_0_3_54_GCN 2.2009445028379548e-01
z_0_3_54_GCN 0
x_0_3_55_GCN 1.6584621183574194e-01
s_0_3_55_GCN 0
z_0_3_55_GCN 1
x_0_3_56_GCN 3.1446143984794594e-01
s_0_3_56_GCN 0
z_0_3_56_GCN 1
x_0_3_57_GCN 5.6701757758855786e-01
s_0_3_57_GCN 0
z_0_3_57_GCN 1
x_0_3_58_GCN 1.4425232261419288e-01
s_0_3_58_GCN 0
z_0_3_58_GCN 1
x_0_3_59_GCN 0
s_0_3_59_GCN 1.7364365607500065e-01
z_0_3_59_GCN 0
x_0_3_60_GCN 0
s_0_3_60_GCN 2.2502232342958502e-02
z_0_3_60_GCN 0
x_0_3_61_GCN 4.2933054268360374e-02
s_0_3_61_GCN 0
z_0_3_61_GCN 1
x_0_3_62_GCN 4.6329565346241129e-02
s_0_3_62_GCN 0
z_0_3_62_GCN 1
x_0_3_63_GCN 1.6031618416309340e-01
s_0_3_63_GCN 0
z_0_3_63_GCN 1
x_1_0_0_GCN 0
s_1_0_0_GCN 0
z_1_0_0_GCN 1
x_1_0_1_GCN 0
s_1_0_1_GCN 0
z_1_0_1_GCN 1
x_1_0_2_GCN 0
s_1_0_2_GCN 1.2255888728306459e-01
z_1_0_2_GCN 0
x_1_0_3_GCN 0
s_1_0_3_GCN 0
z_1_0_3_GCN 1
x_1_0_4_GCN 0
s_1_0_4_GCN 2.0459696336885475e-01
z_1_0_4_GCN 0
x_1_0_5_GCN 0
s_1_0_5_GCN 3.0252915705749156e-01
z_1_0_5_GCN 0
x_1_0_6_GCN 0
s_1_0_6_GCN 0
z_1_0_6_GCN 1
x_1_0_7_GCN 0
s_1_0_7_GCN 4.7047433551631779e-01
z_1_0_7_GCN 0
x_1_0_8_GCN 0
s_1_0_8_GCN 0
z_1_0_8_GCN 1
x_1_0_9_GCN 0
s_1_0_9_GCN 0
z_1_0_9_GCN 1
x_1_0_10_GCN 0
s_1_0_10_GCN 2.7851136485172984e-01
z_1_0_10_GCN 0
x_1_0_11_GCN 0
s_1_0_11_GCN 1.6694377971866667e-01
z_1_0_11_GCN 0
x_1_0_12_GCN 0
s_1_0_12_GCN 0.562644324603905
z_1_0_12_GCN 0
x_1_0_13_GCN 0
s_1_0_13_GCN 2.1015688793809476e-01
z_1_0_13_GCN 0
x_1_0_14_GCN 0
s_1_0_14_GCN 4.8528083694264396e-01
z_1_0_14_GCN 0
x_1_0_15_GCN 0
s_1_0_15_GCN 0
z_1_0_15_GCN 1
x_1_0_16_GCN 0
s_1_0_16_GCN 2.7698392177052467e-01
z_1_0_16_GCN 0
x_1_0_17_GCN 0
s_1_0_17_GCN 0
z_1_0_17_GCN 1
x_1_0_18_GCN 0
s_1_0_18_GCN 0
z_1_0_18_GCN 1
x_1_0_19_GCN 0
s_1_0_19_GCN 0
z_1_0_19_GCN 1
x_1_0_20_GCN 0
s_1_0_20_GCN 0
z_1_0_20_GCN 1
x_1_0_21_GCN 0
s_1_0_21_GCN 0
z_1_0_21_GCN 1
x_1_0_22_GCN 0
s_1_0_22_GCN 2.9268709743867874e-02
z_1_0_22_GCN 0
x_1_0_23_GCN 0
s_1_0_23_GCN 0
z_1_0_23_GCN 1
x_1_0_24_GCN 0
s_1_0_24_GCN 0
z_1_0_24_GCN 1
x_1_0_25_GCN 0
s_1_0_25_GCN 0
z_1_0_25_GCN 1
x_1_0_26_GCN 0
s_1_0_26_GCN 3.8500207349523280e-01
z_1_0_26_GCN 0
x_1_0_27_GCN 0
s_1_0_27_GCN 0
z_1_0_27_GCN 1
x_1_0_28_GCN 0
s_1_0_28_GCN 0
z_1_0_28_GCN 1
x_1_0_29_GCN 0
s_1_0_29_GCN 0
z_1_0_29_GCN 1
x_1_0_30_GCN 0
s_1_0_30_GCN 0
z_1_0_30_GCN 1
x_1_0_31_GCN 0
s_1_0_31_GCN 5.1952313015909990e-01
z_1_0_31_GCN 0
x_1_1_0_GCN 0
s_1_1_0_GCN 0
z_1_1_0_GCN 1
x_1_1_1_GCN 0
s_1_1_1_GCN 0
z_1_1_1_GCN 1
x_1_1_2_GCN 0
s_1_1_2_GCN 1.2255879797261986e-01
z_1_1_2_GCN 0
x_1_1_3_GCN 0
s_1_1_3_GCN 0
z_1_1_3_GCN 1
x_1_1_4_GCN 0
s_1_1_4_GCN 2.0459695324367388e-01
z_1_1_4_GCN 0
x_1_1_5_GCN 0
s_1_1_5_GCN 3.0252911755029172e-01
z_1_1_5_GCN 0
x_1_1_6_GCN 0
s_1_1_6_GCN 0
z_1_1_6_GCN 1
x_1_1_7_GCN 0
s_1_1_7_GCN 4.7047436562805584e-01
z_1_1_7_GCN 0
x_1_1_8_GCN 0
s_1_1_8_GCN 0
z_1_1_8_GCN 1
x_1_1_9_GCN 0
s_1_1_9_GCN 0
z_1_1_9_GCN 1
x_1_1_10_GCN 0
s_1_1_10_GCN 2.7851131320573769e-01
z_1_1_10_GCN 0
x_1_1_11_GCN 0
s_1_1_11_GCN 1.6694379986836719e-01
z_1_1_11_GCN 0
x_1_1_12_GCN 0
s_1_1_12_GCN 5.6264429937311944e-01
z_1_1_12_GCN 0
x_1_1_13_GCN 0
s_1_1_13_GCN 2.1015692696843843e-01
z_1_1_13_GCN 0
x_1_1_14_GCN 0
s_1_1_14_GCN 4.8528084811614453e-01
z_1_1_14_GCN 0
x_1_1_15_GCN 0
s_1_1_15_GCN 0
z_1_1_15_GCN 1
x_1_1_16_GCN 0
s_1_1_16_GCN 2.7698395239656470e-01
z_1_1_16_GCN 0
x_1_1_17_GCN 0
s_1_1_17_GCN 0
z_1_1_17_GCN 1
x_1_1_18_GCN 0
s_1_1_18_GCN 0
z_1_1_18_GCN 1
x_1_1_19_GCN 0
s_1_1_19_GCN 0
z_1_1_19_GCN 1
x_1_1_20_GCN 0
s_1_1_20_GCN 0
z_1_1_20_GCN 1
x_1_1_21_GCN 0
s_1_1_21_GCN 0
z_1_1_21_GCN 1
x_1_1_22_GCN 0
s_1_1_22_GCN 2.9268811330999636e-02
z_1_1_22_GCN 0
x_1_1_23_GCN 0
s_1_1_23_GCN 0
z_1_1_23_GCN 1
x_1_1_24_GCN 0
s_1_1_24_GCN 0
z_1_1_24_GCN 1
x_1_1_25_GCN 0
s_1_1_25_GCN 0
z_1_1_25_GCN 1
x_1_1_26_GCN 0
s_1_1_26_GCN 0.385001982696166
z_1_1_26_GCN 0
x_1_1_27_GCN 0
s_1_1_27_GCN 0
z_1_1_27_GCN 1
x_1_1_28_GCN 0
s_1_1_28_GCN 0
z_1_1_28_GCN 1
x_1_1_29_GCN 0
s_1_1_29_GCN 0
z_1_1_29_GCN 1
x_1_1_30_GCN 0
s_1_1_30_GCN 0
z_1_1_30_GCN 1
x_1_1_31_GCN 0
s_1_1_31_GCN 5.1952316379250929e-01
z_1_1_31_GCN 0
x_1_2_0_GCN 0
s_1_2_0_GCN 0
z_1_2_0_GCN 1
x_1_2_1_GCN 0
s_1_2_1_GCN 0
z_1_2_1_GCN 1
x_1_2_2_GCN 0
s_1_2_2_GCN 1.2255888728306223e-01
z_1_2_2_GCN 0
x_1_2_3_GCN 0
s_1_2_3_GCN 0
z_1_2_3_GCN 1
x_1_2_4_GCN 0
s_1_2_4_GCN 2.0459696336885108e-01
z_1_2_4_GCN 0
x_1_2_5_GCN 0
s_1_2_5_GCN 3.0252915705748651e-01
z_1_2_5_GCN 0
x_1_2_6_GCN 0
s_1_2_6_GCN 0
z_1_2_6_GCN 1
x_1_2_7_GCN 0
s_1_2_7_GCN 4.7047433551630979e-01
z_1_2_7_GCN 0
x_1_2_8_GCN 0
s_1_2_8_GCN 0
z_1_2_8_GCN 1
x_1_2_9_GCN 0
s_1_2_9_GCN 0
z_1_2_9_GCN 1
x_1_2_10_GCN 0
s_1_2_10_GCN 2.7851136485172517e-01
z_1_2_10_GCN 0
x_1_2_11_GCN 0
s_1_2_11_GCN 1.6694377971866378e-01
z_1_2_11_GCN 0
x_1_2_12_GCN 0
s_1_2_12_GCN 5.6264432460389524e-01
z_1_2_12_GCN 0
x_1_2_13_GCN 0
s_1_2_13_GCN 2.1015688793809098e-01
z_1_2_13_GCN 0
x_1_2_14_GCN 0
s_1_2_14_GCN 4.8528083694263546e-01
z_1_2_14_GCN 0
x_1_2_15_GCN 0
s_1_2_15_GCN 0
z_1_2_15_GCN 1
x_1_2_16_GCN 0
s_1_2_16_GCN 2.7698392177052017e-01
z_1_2_16_GCN 0
x_1_2_17_GCN 0
s_1_2_17_GCN 0
z_1_2_17_GCN 1
x_1_2_18_GCN 0
s_1_2_18_GCN 0
z_1_2_18_GCN 1
x_1_2_19_GCN 0
s_1_2_19_GCN 0
z_1_2_19_GCN 1
x_1_2_20_GCN 0
s_1_2_20_GCN 0
z_1_2_20_GCN 1
x_1_2_21_GCN 0
s_1_2_21_GCN 0
z_1_2_21_GCN 1
x_1_2_22_GCN 0
s_1_2_22_GCN 2.9268709743867340e-02
z_1_2_22_GCN 0
x_1_2_23_GCN 0
s_1_2_23_GCN 0
z_1_2_23_GCN 1
x_1_2_24_GCN 0
s_1_2_24_GCN 0
z_1_2_24_GCN 1
x_1_2_25_GCN 0
s_1_2_25_GCN 0
z_1_2_25_GCN 1
x_1_2_26_GCN 0
s_1_2_26_GCN 3.8500207349522630e-01
z_1_2_26_GCN 0
x_1_2_27_GCN 0
s_1_2_27_GCN 0
z_1_2_27_GCN 1
x_1_2_28_GCN 0
s_1_2_28_GCN 0
z_1_2_28_GCN 1
x_1_2_29_GCN 0
s_1_2_29_GCN 0
z_1_2_29_GCN 1
x_1_2_30_GCN 0
s_1_2_30_GCN 0
z_1_2_30_GCN 1
x_1_2_31_GCN 0
s_1_2_31_GCN 5.1952313015909157e-01
z_1_2_31_GCN 0
x_1_3_0_GCN 0
s_1_3_0_GCN 0
z_1_3_0_GCN 1
x_1_3_1_GCN 0
s_1_3_1_GCN 0
z_1_3_1_GCN 1
x_1_3_2_GCN 0
s_1_3_2_GCN 1.2255888728306466e-01
z_1_3_2_GCN 0
x_1_3_3_GCN 0
s_1_3_3_GCN 0
z_1_3_3_GCN 1
x_1_3_4_GCN 0
s_1_3_4_GCN 2.0459696336885486e-01
z_1_3_4_GCN 0
x_1_3_5_GCN 0
s_1_3_5_GCN 3.0252915705749156e-01
z_1_3_5_GCN 0
x_1_3_6_GCN 0
s_1_3_6_GCN 0
z_1_3_6_GCN 1
x_1_3_7_GCN 0
s_1_3_7_GCN 4.7047433551631834e-01
z_1_3_7_GCN 0
x_1_3_8_GCN 0
s_1_3_8_GCN 0
z_1_3_8_GCN 1
x_1_3_9_GCN 0
s_1_3_9_GCN 0
z_1_3_9_GCN 1
x_1_3_10_GCN 0
s_1_3_10_GCN 2.7851136485172995e-01
z_1_3_10_GCN 0
x_1_3_11_GCN 0
s_1_3_11_GCN 1.6694377971866672e-01
z_1_3_11_GCN 0
x_1_3_12_GCN 0
s_1_3_12_GCN 5.6264432460390512e-01
z_1_3_12_GCN 0
x_1_3_13_GCN 0
s_1_3_13_GCN 2.1015688793809476e-01
z_1_3_13_GCN 0
x_1_3_14_GCN 0
s_1_3_14_GCN 4.8528083694264373e-01
z_1_3_14_GCN 0
x_1_3_15_GCN 0
s_1_3_15_GCN 0
z_1_3_15_GCN 1
x_1_3_16_GCN 0
s_1_3_16_GCN 2.7698392177052472e-01
z_1_3_16_GCN 0
x_1_3_17_GCN 0
s_1_3_17_GCN 0
z_1_3_17_GCN 1
x_1_3_18_GCN 0
s_1_3_18_GCN 0
z_1_3_18_GCN 1
x_1_3_19_GCN 0
s_1_3_19_GCN 0
z_1_3_19_GCN 1
x_1_3_20_GCN 0
s_1_3_20_GCN 0
z_1_3_20_GCN 1
x_1_3_21_GCN 0
s_1_3_21_GCN 0
z_1_3_21_GCN 1
x_1_3_22_GCN 0
s_1_3_22_GCN 2.9268709743867971e-02
z_1_3_22_GCN 0
x_1_3_23_GCN 0
s_1_3_23_GCN 0
z_1_3_23_GCN 1
x_1_3_24_GCN 0
s_1_3_24_GCN 0
z_1_3_24_GCN 1
x_1_3_25_GCN 0
s_1_3_25_GCN 0
z_1_3_25_GCN 1
x_1_3_26_GCN 0
s_1_3_26_GCN 3.8500207349523308e-01
z_1_3_26_GCN 0
x_1_3_27_GCN 0
s_1_3_27_GCN 0
z_1_3_27_GCN 1
x_1_3_28_GCN 0
s_1_3_28_GCN 0
z_1_3_28_GCN 1
x_1_3_29_GCN 0
s_1_3_29_GCN 0
z_1_3_29_GCN 1
x_1_3_30_GCN 0
s_1_3_30_GCN 0
z_1_3_30_GCN 1
x_1_3_31_GCN 0
s_1_3_31_GCN 5.1952313015910023e-01
z_1_3_31_GCN 0
h[0] 7.8748286663942979e-01
h[1] 2.9607231478239715e+00
h[2] 0
h[3] 2.0983492905569223e+00
h[4] 0
h[5] 0
h[6] 3.6230437737965984e+00
h[7] 0
h[8] 3.3919103852083996e+00
h[9] 3.1579091247699509e+00
h[10] 0
h[11] 0
h[12] 0
h[13] 0
h[14] 0
h[15] 1.8936763868631263e+00
h[16] 0
h[17] 4.1097235172572608e+00
h[18] 9.2826343503114839e-01
h[19] 4.3109833890943641e+00
h[20] 6.1063604353229328e-01
h[21] 3.0369385614685346e-01
h[22] 0
h[23] 2.4652547254961729e-01
h[24] 2.1387827789814713e+00
h[25] 2.0816505739594597e+00
h[26] 0
h[27] 1.9537699746172863e+00
h[28] 1.6332398702812034e+00
h[29] 3.0780311095536188e+00
h[30] 4.2780682313818130e-01
h[31] 0
y 2.2033652134362778e+00
x_1_0_ANN 9.0453047844267653e-01
s_1_0_ANN 0
z_1_0_ANN 1
x_1_1_ANN 4.8680560178737470e-01
s_1_1_ANN 0
z_1_1_ANN 1
x_1_2_ANN 0
s_1_2_ANN 8.6938745784296867e-01
z_1_2_ANN 0
x_1_3_ANN 4.0376106890868684e+00
s_1_3_ANN 0
z_1_3_ANN 1
x_1_4_ANN 0
s_1_4_ANN 2.8382843666984856e+00
z_1_4_ANN 0
x_1_5_ANN 3.4570358439494551e+00
s_1_5_ANN 0
z_1_5_ANN 1
x_1_6_ANN 0
s_1_6_ANN 1.4251408374525945e+00
z_1_6_ANN 0
x_1_7_ANN 0
s_1_7_ANN 1.0855257993709362e+00
z_1_7_ANN 0
x_1_8_ANN 4.9490547087991449e-01
s_1_8_ANN 0
z_1_8_ANN 1
x_1_9_ANN 1.8935723943503602e+00
s_1_9_ANN 0
z_1_9_ANN 1
x_1_10_ANN 3.8533714023005126e+00
s_1_10_ANN 0
z_1_10_ANN 1
x_1_11_ANN 3.8738398766761337e+00
s_1_11_ANN 0
z_1_11_ANN 1
x_1_12_ANN 5.5614565935888463e+00
s_1_12_ANN 0
z_1_12_ANN 1
x_1_13_ANN 0
s_1_13_ANN 1.5597678099017720e+00
z_1_13_ANN 0
x_1_14_ANN 0
s_1_14_ANN 0.848786347929648
z_1_14_ANN 0
x_1_15_ANN 0
s_1_15_ANN 1.7662196054533861e+00
z_1_15_ANN 0
